
Starting CP-SAT solver v9.15.6755
Parameters: random_seed: 2026073081 max_time_in_seconds: 2500 log_search_progress: true cp_model_presolve: true linearization_level: 2 num_search_workers: 4 cp_model_probing_level: 2 symmetry_level: 2

Initial satisfaction model '': (model_fingerprint: 0xd7fe0467ff30f16c)
#Variables: 724 (604 primary variables)
  - 724 Booleans in [0,1]
#kBoolAnd: 110 (#enforced: 110) (#literals: 330)
#kBoolOr: 110 (#enforced: 110) (#literals: 220)
#kExactlyOne: 87 (#literals: 261)
#kLinear1: 36 (#enforced: 6)
#kLinear2: 336 (#enforced: 336) (#complex_domain: 110)
#kLinear3: 1'600 (#enforced: 6)
#kLinearN: 1'132 (#enforced: 243) (#terms: 9'111)

Starting presolve at 0.00s
  6.81e-04s  0.00e+00d  [DetectDominanceRelations] 
  8.82e-03s  0.00e+00d  [PresolveToFixPoint] #num_loops=3 #num_dual_strengthening=1 
  3.69e-05s  0.00e+00d  [ExtractEncodingFromLinear] #potential_supersets=95 
  3.00e-04s  0.00e+00d  [DetectDuplicateColumns] 
  1.18e-04s  0.00e+00d  [DetectDuplicateConstraints] #duplicates=9 
[Symmetry] Graph for symmetry has 4'853 nodes and 15'606 arcs.
[Symmetry] Symmetry computation done. time: 0.00128905 dtime: 0.00182123
[SAT presolve] num removable Booleans: 220 / 620
[SAT presolve] num trivial clauses: 0
[SAT presolve] [0s] clauses:2'700 literals:7'350 vars:505 one_side_vars:65 simple_definition:1 singleton_clauses:0
[SAT presolve] [0.000218187s] clauses:2'699 literals:7'343 vars:505 one_side_vars:65 simple_definition:1 singleton_clauses:0
[SAT presolve] [0.000538725s] clauses:2'467 literals:7'012 vars:393 one_side_vars:65 simple_definition:2 singleton_clauses:0
  1.24e-04s  0.00e+00d  [DetectDuplicateConstraintsWithDifferentEnforcements] #without_enforcements=4 
  5.80e-03s  3.12e-03d  [Probe] #probed=1'274 #fixed_bools=21 #equiv=11 #new_binary_clauses=892 
  7.31e-04s  4.89e-04d  [MaxClique] Merged 687 constraints with 1'510 literals into 631 constraints with 1'411 literals
  8.54e-04s  0.00e+00d  [DetectDominanceRelations] 
  3.41e-03s  0.00e+00d  [PresolveToFixPoint] #num_loops=2 #num_dual_strengthening=2 
  1.20e-03s  0.00e+00d  [ProcessAtMostOneAndLinear] 
  1.11e-04s  0.00e+00d  [DetectDuplicateConstraints] #duplicates=9 
  1.15e-04s  0.00e+00d  [DetectDuplicateConstraintsWithDifferentEnforcements] 
  3.23e-03s  1.00e-04d  [DetectDominatedLinearConstraints] #relevant_constraints=820 #num_inclusions=492 #num_redundant=7 
  1.14e-04s  0.00e+00d  [DetectDifferentVariables] 
  8.17e-04s  8.91e-05d  [ProcessSetPPC] #relevant_constraints=3'167 #num_inclusions=290 
  2.83e-04s  3.49e-05d  [TransformClausesToExactlyOne] #num_amos=613 #num_clauses=1'764 #num_transformed=5 #num_checked=1'764 
  5.31e-05s  0.00e+00d  [DetectEncodedComplexDomains] 
  3.74e-05s  1.00e-07d  [FindAlmostIdenticalLinearConstraints] #num_tested_pairs=1 
  8.90e-04s  1.33e-03d  [FindBigAtMostOneAndLinearOverlap] 
  1.36e-03s  1.16e-03d  [FindBigVerticalLinearOverlap] #blocks=2 #saved_nz=62 
  3.73e-04s  6.49e-04d  [FindBigHorizontalLinearOverlap] #linears=453 
  3.48e-04s  2.75e-05d  [MergeClauses] #num_collisions=11 #num_merges=11 #num_saved_literals=22 
  8.34e-04s  0.00e+00d  [DetectDominanceRelations] 
  3.03e-03s  0.00e+00d  [PresolveToFixPoint] #num_loops=2 #num_dual_strengthening=1 
  8.27e-04s  0.00e+00d  [DetectDominanceRelations] 
  2.98e-03s  0.00e+00d  [PresolveToFixPoint] #num_loops=1 #num_dual_strengthening=1 
  1.97e-04s  0.00e+00d  [DetectDuplicateColumns] 
  9.21e-05s  0.00e+00d  [DetectDuplicateConstraints] 
[Symmetry] Graph for symmetry has 4'452 nodes and 13'832 arcs.
[Symmetry] Symmetry computation done. time: 0.000991359 dtime: 0.00153429
[SAT presolve] num removable Booleans: 98 / 475
[SAT presolve] num trivial clauses: 0
[SAT presolve] [0s] clauses:2'328 literals:6'644 vars:450 one_side_vars:149 simple_definition:11 singleton_clauses:0
[SAT presolve] [0.000223767s] clauses:2'328 literals:6'507 vars:450 one_side_vars:150 simple_definition:77 singleton_clauses:0
[SAT presolve] [0.000363878s] clauses:2'126 literals:6'026 vars:445 one_side_vars:195 simple_definition:55 singleton_clauses:0
  1.54e-04s  0.00e+00d  [DetectDuplicateConstraintsWithDifferentEnforcements] #without_enforcements=1 
  4.46e-03s  1.61e-03d  [Probe] #probed=1'254 #new_binary_clauses=268 
  3.94e-04s  2.29e-04d  [MaxClique] Merged 502 constraints with 1'083 literals into 484 constraints with 1'070 literals
  8.06e-04s  0.00e+00d  [DetectDominanceRelations] 
  2.97e-03s  0.00e+00d  [PresolveToFixPoint] #num_loops=1 #num_dual_strengthening=1 
  1.10e-03s  0.00e+00d  [ProcessAtMostOneAndLinear] 
  1.11e-04s  0.00e+00d  [DetectDuplicateConstraints] 
  1.21e-04s  0.00e+00d  [DetectDuplicateConstraintsWithDifferentEnforcements] 
  9.28e-04s  5.74e-05d  [DetectDominatedLinearConstraints] #relevant_constraints=809 #num_inclusions=301 #num_redundant=1 
  1.25e-04s  0.00e+00d  [DetectDifferentVariables] 
  7.22e-04s  7.21e-05d  [ProcessSetPPC] #relevant_constraints=3'011 #num_inclusions=92 
  2.84e-04s  3.16e-05d  [TransformClausesToExactlyOne] #num_amos=480 #num_clauses=1'664 #num_checked=1'664 
  5.21e-05s  0.00e+00d  [DetectEncodedComplexDomains] 
  4.86e-05s  1.00e-07d  [FindAlmostIdenticalLinearConstraints] #num_tested_pairs=1 
  8.31e-04s  1.17e-03d  [FindBigAtMostOneAndLinearOverlap] 
  1.36e-03s  1.05e-03d  [FindBigVerticalLinearOverlap] #blocks=2 #saved_nz=218 
  3.35e-04s  5.26e-04d  [FindBigHorizontalLinearOverlap] #linears=455 
  3.15e-04s  2.55e-05d  [MergeClauses] #num_collisions=68 #num_merges=68 #num_saved_literals=168 
  8.16e-04s  0.00e+00d  [DetectDominanceRelations] 
  3.02e-03s  0.00e+00d  [PresolveToFixPoint] #num_loops=2 #num_dual_strengthening=1 
  8.12e-04s  0.00e+00d  [DetectDominanceRelations] 
  2.94e-03s  0.00e+00d  [PresolveToFixPoint] #num_loops=1 #num_dual_strengthening=1 
  1.87e-04s  0.00e+00d  [DetectDuplicateColumns] 
  9.52e-05s  0.00e+00d  [DetectDuplicateConstraints] 
[Symmetry] Graph for symmetry has 4'205 nodes and 12'674 arcs.
[Symmetry] Symmetry computation done. time: 0.00099728 dtime: 0.00130921
[SAT presolve] num removable Booleans: 93 / 470
[SAT presolve] num trivial clauses: 0
[SAT presolve] [0s] clauses:2'099 literals:5'967 vars:445 one_side_vars:195 simple_definition:55 singleton_clauses:0
[SAT presolve] [0.000189843s] clauses:2'099 literals:5'967 vars:445 one_side_vars:195 simple_definition:55 singleton_clauses:0
[SAT presolve] [0.00024719s] clauses:2'099 literals:5'967 vars:445 one_side_vars:195 simple_definition:55 singleton_clauses:0
  1.37e-04s  0.00e+00d  [DetectDuplicateConstraintsWithDifferentEnforcements] 
  5.18e-03s  1.69e-03d  [Probe] #probed=1'254 #new_binary_clauses=267 
  3.89e-04s  2.19e-04d  [MaxClique] Merged 478 constraints with 1'041 literals into 477 constraints with 1'040 literals
  8.20e-04s  0.00e+00d  [DetectDominanceRelations] 
  3.11e-03s  0.00e+00d  [PresolveToFixPoint] #num_loops=1 #num_dual_strengthening=1 
  1.07e-03s  0.00e+00d  [ProcessAtMostOneAndLinear] 
  1.58e-04s  0.00e+00d  [DetectDuplicateConstraints] 
  1.26e-04s  0.00e+00d  [DetectDuplicateConstraintsWithDifferentEnforcements] 
  6.20e-04s  4.89e-05d  [DetectDominatedLinearConstraints] #relevant_constraints=811 #num_inclusions=265 
  1.49e-04s  0.00e+00d  [DetectDifferentVariables] 
  6.97e-04s  6.70e-05d  [ProcessSetPPC] #relevant_constraints=3'008 #num_inclusions=63 
  2.89e-04s  3.16e-05d  [TransformClausesToExactlyOne] #num_amos=477 #num_clauses=1'666 #num_checked=1'666 
  7.61e-05s  0.00e+00d  [DetectEncodedComplexDomains] 
  6.14e-05s  0.00e+00d  [FindAlmostIdenticalLinearConstraints] 
  7.22e-04s  8.99e-04d  [FindBigAtMostOneAndLinearOverlap] 
  1.15e-03s  7.86e-04d  [FindBigVerticalLinearOverlap] 
  3.34e-04s  5.26e-04d  [FindBigHorizontalLinearOverlap] #linears=455 
  3.35e-04s  2.55e-05d  [MergeClauses] #num_collisions=69 #num_merges=69 #num_saved_literals=170 
  8.29e-04s  0.00e+00d  [DetectDominanceRelations] 
  3.00e-03s  0.00e+00d  [PresolveToFixPoint] #num_loops=1 #num_dual_strengthening=1 
  4.50e-05s  0.00e+00d  [MergeNoOverlap] 
  4.21e-05s  0.00e+00d  [MergeNoOverlap2D] 

Presolve summary:
  - 40 affine relations were detected.
  - rule 'TODO dual: only one blocking constraint?' was applied 889 times.
  - rule 'TODO linear inclusion: superset is equality' was applied 183 times.
  - rule 'affine: new relation' was applied 40 times.
  - rule 'at_most_one: removed literals' was applied 89 times.
  - rule 'at_most_one: satisfied' was applied 2 times.
  - rule 'at_most_one: size one' was applied 88 times.
  - rule 'at_most_one: transformed into max clique' was applied 3 times.
  - rule 'bool_or: always true' was applied 15 times.
  - rule 'bool_or: implications' was applied 75 times.
  - rule 'bool_or: only one literal' was applied 12 times.
  - rule 'bool_or: removed enforcement literal' was applied 557 times.
  - rule 'clauses: transformed into exactly one' was applied 5 times.
  - rule 'deductions: 777 stored' was applied 1 time.
  - rule 'dual: fix variable' was applied 1 time.
  - rule 'duplicate: merged rhs of linear constraint' was applied 17 times.
  - rule 'duplicate: removed constraint' was applied 18 times.
  - rule 'duplicate: removed enforced constraint' was applied 5 times.
  - rule 'enforcement: false literal' was applied 42 times.
  - rule 'enforcement: true literal' was applied 16 times.
  - rule 'exactly_one: removed literals' was applied 29 times.
  - rule 'exactly_one: satisfied' was applied 7 times.
  - rule 'exactly_one: singleton' was applied 2 times.
  - rule 'exactly_one: size two' was applied 27 times.
  - rule 'exactly_one: x and not(x)' was applied 8 times.
  - rule 'incompatible linear: add implication' was applied 117 times.
  - rule 'linear + amo: empty after processing' was applied 5 times.
  - rule 'linear + amo: extracted enforcement literal' was applied 46 times.
  - rule 'linear + amo: trivial linear constraint' was applied 1 time.
  - rule 'linear inclusion: redundant containing constraint' was applied 3 times.
  - rule 'linear inclusion: redundant included constraint' was applied 3 times.
  - rule 'linear inclusion: sparsify superset' was applied 2 times.
  - rule 'linear matrix: common vertical rectangle' was applied 4 times.
  - rule 'linear1: always true' was applied 2 times.
  - rule 'linear1: x in domain' was applied 30 times.
  - rule 'linear2: convert ax + by != cte to clauses' was applied 248 times.
  - rule 'linear2: convert implied ax + by == cte to clauses' was applied 114 times.
  - rule 'linear2: implied ax + by = cte has only one solution' was applied 9 times.
  - rule 'linear: always true' was applied 425 times.
  - rule 'linear: coefficient strengthening by increasing it' was applied 2 times.
  - rule 'linear: empty' was applied 5 times.
  - rule 'linear: enforcement literal in expression' was applied 4 times.
  - rule 'linear: extracted at most one (max)' was applied 1 time.
  - rule 'linear: fixed or dup variables' was applied 884 times.
  - rule 'linear: negative clause' was applied 1'283 times.
  - rule 'linear: negative reified and' was applied 74 times.
  - rule 'linear: never in domain' was applied 5 times.
  - rule 'linear: positive at most one' was applied 44 times.
  - rule 'linear: positive equal one' was applied 1 time.
  - rule 'linear: reduced variable domains' was applied 5 times.
  - rule 'linear: remapped using affine relations' was applied 30 times.
  - rule 'presolve: 97 unused variables removed.' was applied 1 time.
  - rule 'presolve: iteration' was applied 3 times.
  - rule 'probing: bool_or reduced to implication' was applied 53 times.
  - rule 'probing: simplified clauses' was applied 6 times.
  - rule 'setppc: bool_or in at_most_one' was applied 12 times.
  - rule 'setppc: exactly_one included in linear' was applied 1 time.
  - rule 'setppc: reduced linear coefficients' was applied 1 time.
  - rule 'setppc: removed dominated constraints' was applied 81 times.
  - rule 'variables: both boolean and its negation fix the same variable' was applied 2 times.
  - rule 'variables: detect half reified value encoding' was applied 4 times.

Presolved satisfaction model '': (model_fingerprint: 0x91c88f79f229e19f)
#Variables: 472 (403 primary variables)
  - 470 Booleans in [0,1]
  - 1 in [0,2]
  - 1 in [0,8]
#kAtMostOne: 46 (#literals: 178)
#kBoolAnd: 256 (#enforced: 256) (#literals: 687)
#kBoolAndClauses: 69 (#enforced: 69 #multi: 69) (#literals: 308)
#kBoolOr: 1'528 (#literals: 4'623)
#kExactlyOne: 54 (#literals: 207)
#kLinearN: 811 (#enforced: 114) (#terms: 5'410)
[Symmetry] Graph for symmetry has 3'947 nodes and 12'669 arcs.
[Symmetry] Symmetry computation done. time: 0.00078281 dtime: 0.00129326

Preloading model.
#Model   0.09s var:472/472 constraints:2764/2764

Starting search at 0.09s with 4 workers.
3 full problem subsolvers: [default_lp, max_lp, no_lp]
1 first solution subsolver: [fj]
2 interleaved subsolvers: [feasibility_pump, rins/rens]
2 helper subsolvers: [neighborhood_helper, synchronization_agent]

#Model   0.35s var:471/472 constraints:2763/2764
#Model   0.62s var:469/472 constraints:2762/2764
#Model   0.72s var:468/472 constraints:2761/2764
#Model   1.92s var:467/472 constraints:2760/2764
#Model  21.06s var:466/472 constraints:2745/2764
#Model  23.98s var:465/472 constraints:2745/2764
#Model  34.15s var:464/472 constraints:2743/2764
#Model 527.39s var:463/472 constraints:2727/2764
#Model 540.37s var:462/472 constraints:2725/2764
#Model 562.59s var:461/472 constraints:2712/2764
#Model 575.87s var:459/472 constraints:2694/2764
#Model 589.86s var:458/472 constraints:2693/2764
#Model 799.44s var:457/472 constraints:2673/2764
#Model 817.13s var:456/472 constraints:2652/2764
#Model 825.72s var:455/472 constraints:2633/2764
#Model 835.21s var:453/472 constraints:2618/2764
#Model 837.31s var:452/472 constraints:2599/2764
#Model 837.96s var:450/472 constraints:2560/2764
#Done  838.27s no_lp

Task timing                   n [     min,      max]      avg      dev     time         n [     min,      max]      avg      dev    dtime
        'default_lp':         1 [  13.97m,   13.97m]   13.97m   0.00ns   13.97m         2 [  1.71ms,   14.03m]    7.01m    7.01m   14.03m
  'feasibility_pump':      4157 [857.04us, 122.38ms]   1.50ms   1.90ms    6.23s      4156 [270.69us, 105.03ms] 297.65us   1.62ms    1.24s
                'fj':      2972 [102.87ms, 238.73ms] 139.88ms   9.54ms    6.93m      2972 [100.00ms, 100.13ms] 100.02ms  15.06us    4.95m
            'max_lp':         1 [  13.97m,   13.97m]   13.97m   0.00ns   13.97m         2 [ 94.94ms,   19.33m]    9.66m    9.66m   19.33m
             'no_lp':         1 [  13.97m,   13.97m]   13.97m   0.00ns   13.97m         2 [  1.50ms,   27.62m]   13.81m   13.81m   27.62m
         'rins/rens':      3832 [ 24.33ms, 169.43ms] 108.48ms  38.13ms    6.93m      3832 [516.88us, 100.34ms]  69.22ms  36.01ms    4.42m

Search stats     Bools  Conflicts    Branches  Restarts  BacktrackToRoot  Backtrack   BoolPropag  IntegerPropag
  'default_lp':    470     91'439   5'129'264       383          819'447  1'129'053   46'841'828     55'157'557
      'max_lp':    470     37'779   8'087'085       230        1'223'348  1'521'843   71'082'771     92'832'295
       'no_lp':    470  8'552'598  12'041'641    28'390          293'755  8'793'424  696'232'026    162'305'356

SAT formula      Fixed  Equiv  Total  VarLeft  BinaryClauses  PermanentClauses  TemporaryClauses
  'default_lp':     17      6    470      447          2'094            22'979             3'174
      'max_lp':     17      6    470      447          2'092            22'608             4'209
       'no_lp':    240      6    470      224          2'106            57'052             4'622

SAT stats        ClassicMinim   LitRemoved  LitRemovedBinary   LitLearned  LitForgotten   Subsumed
  'default_lp':        79'099      837'303           387'081    1'970'292       900'646     40'908
      'max_lp':        30'650      271'133           138'242      601'111        72'651     20'584
       'no_lp':     7'651'238  118'649'270        35'585'932  188'616'566   144'287'248  2'473'427

Vivification       Clauses  Decisions  LitTrue  Subsumed  LitRemoved  DecisionReused  Conflicts
  'default_lp':    902'510  4'889'079        6    15'264     146'704         284'569      1'524
      'max_lp':  1'313'059  7'873'952        0    16'991     166'458         351'945      1'817
       'no_lp':    236'018  1'955'835       11    18'427     230'341          59'719      1'152

Clause deletion    at_true  l_and_not(l)  to_binary  sub_conflict  sub_extra  sub_decisions  sub_eager  sub_vivify  sub_probing  sub_inpro  blocked  eliminated  forgotten    promoted  conflicts
    'default_lp':    4'540             7         25        40'140        270          1'831        768      15'264        7'273     17'399        0           0     28'580     157'770     91'439
        'max_lp':    4'378             8         21        20'412         67            501        172      16'991        5'153     11'367        0           0      2'731      47'768     37'779
         'no_lp':   39'284            23         54     2'429'306     19'871        110'956     44'121      18'427       17'379    113'118        0           0  5'705'030  19'434'679  8'552'598

Lp stats         Component  Iterations  AddedCuts  OPTIMAL  DUAL_F.  DUAL_U.
  'default_lp':          1  11'127'149     26'730  105'551        1   63'936
      'max_lp':          1   4'668'368     26'178    9'270   13'183    9'375

Lp dimension        Final dimension of first component
  'default_lp':    266 rows, 333 columns, 2358 entries
      'max_lp':  1743 rows, 472 columns, 50598 entries

Lp debug         CutPropag  CutEqPropag  Adjust  Overflow      Bad  BadScaling
  'default_lp':          0           11  63'933         0  777'140           0
      'max_lp':          0          324   9'372         0  699'997           0

Lp pool          Constraints  Updates  Simplif  Merged  Shortened  Split  Strengthened      Cuts/Call
  'default_lp':       10'507    5'846    3'549       0      3'950    417             0  26'730/30'833
      'max_lp':       12'253    8'959    6'473       7      6'481  1'280         1'057  26'178/35'134

Lp Cut            default_lp  max_lp
          CG_FF:         452     129
           CG_K:         212      29
          CG_KL:         131       5
           CG_R:         471     116
          CG_RB:           -      11
         CG_RBP:           -      11
         Clique:           -     118
             IB:          12       3
       MIR_1_FF:         223     427
        MIR_1_K:          46       9
       MIR_1_KL:         127       6
        MIR_1_R:         183     191
       MIR_1_RB:           1       -
      MIR_1_RLT:           -   3'308
       MIR_2_FF:         225     250
        MIR_2_K:          71      40
       MIR_2_KL:          76      22
        MIR_2_R:         252     283
       MIR_3_FF:         100      97
        MIR_3_K:          17      19
       MIR_3_KL:          35       8
        MIR_3_R:         101     109
       MIR_4_FF:          50      28
        MIR_4_K:          11       8
       MIR_4_KL:          17       -
        MIR_4_R:          57      81
       MIR_4_RB:           -       1
       MIR_5_FF:          12      19
        MIR_5_K:           5       5
       MIR_5_KL:           1       -
        MIR_5_R:          29      68
       MIR_5_RB:           -       1
       MIR_6_FF:           6      12
        MIR_6_K:           -       2
       MIR_6_KL:           2       -
        MIR_6_R:          16      82
   ZERO_HALF_FF:         161     339
    ZERO_HALF_K:          31       1
   ZERO_HALF_KL:          22       1
    ZERO_HALF_R:      23'516  20'324
   ZERO_HALF_RB:           3       1
  ZERO_HALF_RBP:          56      14

LNS stats       Improv/Calls  Closed  Difficulty  TimeLimit
  'rins/rens':     3832/3832     50%    7.79e-01       0.10

LS stats                                    Batches  Restarts/Perturbs   LinMoves   GenMoves  CompoundMoves  Bactracks  WeightUpdates  ScoreComputed
                             'fj_restart':      124                 48  3'565'123          0              0          0      2'791'139      2'910'823
                    'fj_restart_compound':      138                 43          0  1'520'388         98'984    710'626          3'570     25'160'017
                'fj_restart_compound_obj':      150                 53          0  1'631'105        124'618    753'119          3'529     27'218'982
            'fj_restart_compound_perturb':      194                 50          0  2'135'258        130'070  1'002'496          5'268     35'347'664
        'fj_restart_compound_perturb_obj':      319                 50          0  3'535'161        148'629  1'693'159         10'217     58'306'162
                       'fj_restart_decay':      130                 50  4'099'858          0              0          0        181'203      1'363'313
              'fj_restart_decay_compound':      162                 48          0  1'953'471        324'206    814'524          2'209     29'590'527
          'fj_restart_decay_compound_obj':      149                 48          0  1'765'055        295'177    734'818          2'035     27'242'652
      'fj_restart_decay_compound_perturb':      330                 55          0  4'151'660        681'245  1'735'075          4'475     60'657'807
  'fj_restart_decay_compound_perturb_obj':      183                 47          0  2'191'261        364'510    913'300          2'478     33'507'060
                   'fj_restart_decay_obj':      185                 40  5'835'875          0              0          0        257'141      1'942'873
               'fj_restart_decay_perturb':      126                 36  3'973'550          0              0          0        174'659      1'285'008
           'fj_restart_decay_perturb_obj':      123                 52  3'876'077          0              0          0        170'653      1'260'996
                         'fj_restart_obj':      140                 48  3'943'913          0              0          0      3'235'022      3'013'478
                     'fj_restart_perturb':      336                 44  9'566'982          0              0          0      8'150'137      6'696'706
                 'fj_restart_perturb_obj':      183                 52  5'244'796          0              0          0      4'344'763      4'105'257

Solution repositories    Added  Queried  Synchro
    'alternative_path':      0        0        0
      'best_solutions':      0        0        0
   'fj solution hints':    756        0      756
        'lp solutions':    215    3'832      215
                'pump':      0        0

Improving bounds shared    Num  Sym
            'default_lp':   10    0
                'max_lp':    2    0
                 'no_lp':   79    0

Clauses shared    #Exported  #Imported  #BinaryRead  #BinaryTotal
   'default_lp':      3'798     50'500          656           730
       'max_lp':      3'988     50'175          655           730
        'no_lp':     50'327      7'183          730           730

LRAT_status: NA
CpSolverResponse summary:
status: INFEASIBLE
objective: NA
best_bound: NA
integers: 346
booleans: 470
conflicts: 8552598
branches: 12041641
propagations: 696232026
integer_propagations: 162305356
restarts: 28390
lp_iterations: 0
walltime: 838.293
usertime: 838.293
deterministic_time: 4222.19
gap_integral: 0

{
  "board_size": 22,
  "parity_proved": 0,
  "target": 34,
  "child_id": 981,
  "child_count": 2640,
  "partition": "unknown_pair_x_diag_plus_twos_x_diag_minus_twos",
  "build_seconds": 0.08099603652954102,
  "workers": 4,
  "requested_seed": 2026073081,
  "effective_seed": 2026073081,
  "main_diagonal_pair": [
    2,
    14
  ],
  "pair_index": 51,
  "diag_plus_twos": 16,
  "diag_minus_twos": 15,
  "pair_excess": 10,
  "residual_certificate_slack": 102,
  "analytic_minimum_line_defect": 46,
  "analytic_defect_details": {
    "row_costs": {
      "12": 6,
      "13": 3,
      "14": 0,
      "15": 0,
      "16": 0,
      "17": 0
    },
    "column_costs": {
      "12": 6,
      "13": 3,
      "14": 0,
      "15": 0,
      "16": 0,
      "17": 0
    },
    "plus_cost": 24,
    "minus_cost": 22,
    "row_column_minimum": 0
  },
  "maximal_line_constraints": 2455,
  "analytic_infeasible": false,
  "allowed_points": 242,
  "status": "INFEASIBLE",
  "proof_method": "cp_sat_all_lines_with_certificate_profile_cuts",
  "elapsed_seconds": 838.294771194458,
  "branches": 12041641,
  "conflicts": 8552598
}
